(set-info :smt-lib-version 2.6)
(set-logic QF_LIA)
(set-info :source |
show equivalence of the following terms:
((1 * v0 + 2 * v1) + (4 * v2 + 8 * v3))

v0 + 2 * (v1 + 2 * (v2 + 2 * (v3)))

in arithmetic modulo 2exp14
STATUS: unsat

generated by: Alberto Griggio <alberto.griggio@disi.unitn.it>
|)
(set-info :category "crafted")
(set-info :status unsat)
(declare-fun v0 () Int)
(declare-fun v1 () Int)
(declare-fun v2 () Int)
(declare-fun v3 () Int)
(declare-fun o_0 () Int)
(declare-fun s_1 () Int)
(declare-fun s_2 () Int)
(declare-fun o_1 () Int)
(declare-fun o_2 () Int)
(declare-fun o_3 () Int)
(declare-fun o_4 () Int)
(declare-fun s_5 () Int)
(declare-fun o_5 () Int)
(assert (let ((?v_0 (* v3 2))) (let ((?v_2 (< ?v_0 16384)) (?v_3 (< ?v_0 32768))) (let ((?v_16 (+ (ite ?v_2 ?v_0 (ite ?v_3 (- ?v_0 16384) (- ?v_0 32768))) v2))) (let ((?v_17 (- ?v_16 (* o_3 16384))) (?v_22 (* v3 8))) (let ((?v_23 (- ?v_22 (* s_2 16384))) (?v_24 (* v2 4))) (let ((?v_25 (- ?v_24 (* s_1 16384)))) (let ((?v_20 (+ ?v_23 ?v_25))) (let ((?v_21 (- ?v_20 (* o_1 16384))) (?v_7 (* v1 2))) (let ((?v_26 (+ (ite (< ?v_7 16384) ?v_7 (ite (< ?v_7 32768) (- ?v_7 16384) (- ?v_7 32768))) v0))) (let ((?v_27 (- ?v_26 (* o_0 16384)))) (let ((?v_18 (+ ?v_21 ?v_27))) (let ((?v_19 (- ?v_18 (* o_2 16384))) (?v_1 (* 4 v3))) (let ((?v_5 (- (+ (ite ?v_2 ?v_1 (ite ?v_3 (- ?v_1 32768) (- ?v_1 65536))) (* 2 v2)) (* 32768 o_3)))) (let ((?v_12 (< ?v_5 16384)) (?v_13 (< ?v_5 32768))) (let ((?v_14 (+ (ite ?v_12 ?v_5 (ite ?v_13 (- ?v_5 16384) (- ?v_5 32768))) v1))) (let ((?v_15 (- ?v_14 (* o_4 16384))) (?v_4 (* 8 v3))) (let ((?v_6 (- (+ (ite ?v_2 ?v_4 (ite ?v_3 (- ?v_4 65536) (- ?v_4 131072))) (* 4 v2)) (* 65536 o_3)))) (let ((?v_10 (- (+ (ite ?v_12 ?v_6 (ite ?v_13 (- ?v_6 32768) (- ?v_6 65536))) (* 2 v1)) (* 32768 o_4)))) (let ((?v_11 (- ?v_10 (* s_5 16384)))) (let ((?v_8 (+ ?v_11 v0))) (let ((?v_9 (- ?v_8 (* o_5 16384)))) (and (not (= ?v_9 ?v_19)) (and (= (> ?v_8 16384) (= o_5 1)) (and (and (< ?v_9 16384) (<= 0 ?v_9)) (and (and (<= o_5 1) (<= 0 o_5)) (and (= (> ?v_10 16384) (>= s_5 1)) (and (and (< ?v_11 16384) (<= 0 ?v_11)) (and (and (< s_5 2) (<= 0 s_5)) (and (= (> ?v_14 16384) (= o_4 1)) (and (and (< ?v_15 16384) (<= 0 ?v_15)) (and (and (<= o_4 1) (<= 0 o_4)) (and (= (> ?v_16 16384) (= o_3 1)) (and (and (< ?v_17 16384) (<= 0 ?v_17)) (and (and (<= o_3 1) (<= 0 o_3)) (and (= (> ?v_18 16384) (= o_2 1)) (and (and (< ?v_19 16384) (<= 0 ?v_19)) (and (and (<= o_2 1) (<= 0 o_2)) (and (= (> ?v_20 16384) (= o_1 1)) (and (and (< ?v_21 16384) (<= 0 ?v_21)) (and (and (<= o_1 1) (<= 0 o_1)) (and (= (> ?v_22 16384) (>= s_2 1)) (and (and (< ?v_23 16384) (<= 0 ?v_23)) (and (and (< s_2 8) (<= 0 s_2)) (and (= (> ?v_24 16384) (>= s_1 1)) (and (and (< ?v_25 16384) (<= 0 ?v_25)) (and (and (< s_1 4) (<= 0 s_1)) (and (= (> ?v_26 16384) (= o_0 1)) (and (and (< ?v_27 16384) (<= 0 ?v_27)) (and (and (<= o_0 1) (<= 0 o_0)) (and (and (< v3 16384) (>= v3 0)) (and (and (< v2 16384) (>= v2 0)) (and (and (< v1 16384) (>= v1 0)) (and (< v0 16384) (>= v0 0)))))))))))))))))))))))))))))))))))))))))))))))))))))))
(check-sat)
(exit)
